File : Instances/p33
Used 76s
11989

1 0 1 0 0 1 0 0 0 0 0 1 0 0 1 0 0 1 0 0 1 0 0 0 1 0 0 0 0 0 
20 11 20 2 20 5 2 24 14 17 5 20 14 20 17 14 17 17 5 11 2 0 5 17 5 20 2 24 5 24 5 11 2 11 20 20 24 24 0 14 0 14 24 2 24 14 0 20 11 14 5 2 14 5 20 20 17 11 0 14 0 5 20 11 11 11 24 0 24 5 2 20 11 17 24 14 24 20 2 24 20 0 20 17 17 17 17 0 20 5 2 24 17 11 17 5 2 17 11 2 14 17 17 11 2 5 17 11 14 14 14 2 2 11 11 11 24 24 24 24 5 2 11 20 14 0 5 24 0 11 0 11 24 5 14 14 17 5 20 17 0 14 20 14 14 11 11 5 2 5 
